9735
0001111111
7 7 7 7 7 7 7 7 3 4 4 4 3 4 4 4 4 8 3 5 8 3 8 8 3 9 9 9 9 9 9 9 5 5 6 6 6 6 6 6 6 6 6 6 7 7 4 8 8 5 5 3 4 6 7 5 3 3 3 4 6 9 5 5 3 5 5 6 4 7 6 6 4 3 3 4 3 4 7 5 4 3 8 5 5 3 3 4 5 3 5 5 9 7 8 6 3 7 3 7 